WARNING: for repeatability, setting FPU to use double precision
============================[ Problem Statistics ]=============================
|                                                                             |
|  Number of variables:            50                                         |
|  Number of clauses:             218                                         |
|  Parse time:                   0.00 s                                       |
|                                                                             |
============================[ Search Statistics ]==============================
| Conflicts |          ORIGINAL         |          LEARNT          | Progress |
|           |    Vars  Clauses Literals |    Limit  Clauses Lit/Cl |          |
===============================================================================
===============================================================================
restarts              : 1
conflicts             : 4              (2926 /sec)
decisions             : 18             (0.00 % random) (13168 /sec)
propagations          : 115            (84126 /sec)
conflict literals     : 23             (4.17 % deleted)
Memory used           : 20.00 MB
CPU time              : 0.001367 s

SATISFIABLE
